proyfinal/src/viki/013/experimentInOfficeAgust.take6.output/07c16abf-3db2-4246-9b55-e365cbd35a6a.als.out
Reading from standard input... Use '--help' for help.
============================[ Problem Statistics ]=============================
|                                                                             |
|  Number of variables:         87638                                         |
|  Number of clauses:          161767                                         |
|  Parse time:                   0.04 s                                       |
|                                                                             |
============================[ Search Statistics ]==============================
| Conflicts |          ORIGINAL         |          LEARNT          | Progress |
|           |    Vars  Clauses Literals |    Limit  Clauses Lit/Cl |          |
===============================================================================
|       100 |   63705   110000   275055 |    40333      100     31 | 27.309 % |
|       250 |   63705   110000   275055 |    44366      250    110 | 27.309 % |
|       475 |   63686   109924   274879 |    48803      473    107 | 27.331 % |
|       812 |   63686   109924   274879 |    53683      810     85 | 27.331 % |
|      1318 |   50274    71688   180664 |    59052     1301     77 | 42.634 % |
|      2077 |   49880    69969   176617 |    64957     2046     65 | 43.084 % |
|      3216 |   49623    69291   174988 |    71452     3174     59 | 43.377 % |
|      4924 |   49263    67458   170556 |    78598     4794     55 | 43.788 % |
|      7486 |   48416    64426   163008 |    86458     6963     54 | 44.755 % |
===============================================================================
restarts              : 45
conflicts             : 10169          (6747 /sec)
decisions             : 32972          (0.00 % random) (21877 /sec)
propagations          : 15878190       (10535074 /sec)
conflict literals     : 495099         (42.91 % deleted)
Memory used           : 34.70 MB
CPU time              : 1.50717 s

UNSATISFIABLE
